TCS_Benchmarks/redos_fix/regexlib1_output_distinct_1224_1223_1_0.txt
([\.i0-9]{0,})([\.i0-9]{0,})
([\.i0-9]{0,})([+|\-]?)([\.i0-9]{0,})